GLPSOL: GLPK LP/MIP Solver, v4.52
Parameter(s) specified in the command line:
 --model /home/floodlight/src/main/java/net/floodlightcontroller/sirius/embedding/pt/lasige/secdepvne/topology/SecDep_MIP.mod
 --data /home/floodlight/src/main/java/net/floodlightcontroller/sirius/embedding/pt/lasige/secdepvne/topology/result/virtualNetwork4_embedding.dat
Reading model section from /home/floodlight/src/main/java/net/floodlightcontroller/sirius/embedding/pt/lasige/secdepvne/topology/SecDep_MIP.mod...
210 lines were read
Reading data section from /home/floodlight/src/main/java/net/floodlightcontroller/sirius/embedding/pt/lasige/secdepvne/topology/result/virtualNetwork4_embedding.dat...
99 lines were read
Generating cost...
Generating fwConst0...
Generating fwConst1...
Generating fwConst2...
Generating fwConst3...
Generating fwConst4...
Generating fbConst0...
Generating fbConst1...
Generating fbConst2...
Generating fbConst3...
Generating fbConst4...
Generating capConst0...
Generating capConst1...
Generating nodeCapConst0...
Generating nodeCapConst1...
Generating nodeMapConst0...
Generating nodeMapConst1...
Generating nodeMapConst2...
Generating nodeMapConst3...
Generating nodeLocConst0...
Generating nodeLocConst1...
Generating nodeLocConst2...
Generating nodeLocConst3...
Generating nodeLocConst4...
Generating nodeLocConst5...
Generating cloudConst0...
Generating cloudConst1...
Generating flowConst...
Generating relConst0...
Generating relConst1...
Generating relConst2...
Generating relConst3...
Generating relConst4...
Generating relConst5...
Generating nodeSecConst0...
Generating nodeSecConst1...
Generating linkSecConst0...
Generating linkSecConst1...
Generating binConst0...
Generating binConst1...
Generating aux0...
Generating aux1...
Generating aux2...
Model has been successfully generated
GLPK Integer Optimizer, v4.52
531 rows, 456 columns, 1347 non-zeros
180 integer variables, all of which are binary
Preprocessing...
23 hidden packing inequaliti(es) were detected
4 constraint coefficient(s) were reduced
251 rows, 204 columns, 599 non-zeros
121 integer variables, all of which are binary
Scaling...
 A: min|aij| =  1.000e+00  max|aij| =  1.000e+03  ratio =  1.000e+03
GM: min|aij| =  7.971e-01  max|aij| =  1.255e+00  ratio =  1.574e+00
EQ: min|aij| =  6.645e-01  max|aij| =  1.000e+00  ratio =  1.505e+00
2N: min|aij| =  4.883e-01  max|aij| =  1.000e+00  ratio =  2.048e+00
Constructing initial basis...
Size of triangular part is 203
Solving LP relaxation...
GLPK Simplex Optimizer, v4.52
251 rows, 204 columns, 599 non-zeros
      0: obj =   3.000000000e+02  infeas =  1.835e+02 (48)
*    21: obj =   3.000000000e+02  infeas =  0.000e+00 (48)
OPTIMAL LP SOLUTION FOUND
Integer optimization begins...
+    21: mip =     not found yet >=              -inf        (1; 0)
+    45: >>>>>   2.304000000e+03 >=   3.000000000e+02  87.0% (4; 0)
+    45: mip =   2.304000000e+03 >=     tree is empty   0.0% (0; 7)
INTEGER OPTIMAL SOLUTION FOUND
Time used:   0.0 secs
Memory used: 0.8 Mb (878667 bytes)
Function cost: 2304.000000
Sum of all phiw to 1 and 4: 2
Sum of all phiw to 1 and 7: 2
Sum of all phib to 1 and 4: 0
Sum of all phib to 1 and 7: 0
Variable fw[1,4,A,A]: 0.000000
Variable fw[1,4,A,B]: 0.000000
Variable fw[1,4,A,C]: 0.000000
Variable fw[1,4,A,1]: 0.000000
Variable fw[1,4,A,4]: 1000.000000
Variable fw[1,4,A,7]: 0.000000
Variable fw[1,4,B,A]: 1000.000000
Variable fw[1,4,B,B]: 0.000000
Variable fw[1,4,B,C]: 0.000000
Variable fw[1,4,B,1]: 0.000000
Variable fw[1,4,B,4]: 0.000000
Variable fw[1,4,B,7]: 0.000000
Variable fw[1,4,C,A]: 0.000000
Variable fw[1,4,C,B]: 0.000000
Variable fw[1,4,C,C]: 0.000000
Variable fw[1,4,C,1]: 0.000000
Variable fw[1,4,C,4]: 0.000000
Variable fw[1,4,C,7]: 0.000000
Variable fw[1,4,1,A]: 0.000000
Variable fw[1,4,1,B]: 1000.000000
Variable fw[1,4,1,C]: 0.000000
Variable fw[1,4,1,1]: 0.000000
Variable fw[1,4,1,4]: 0.000000
Variable fw[1,4,1,7]: 0.000000
Variable fw[1,4,4,A]: 0.000000
Variable fw[1,4,4,B]: 0.000000
Variable fw[1,4,4,C]: 0.000000
Variable fw[1,4,4,1]: 0.000000
Variable fw[1,4,4,4]: 0.000000
Variable fw[1,4,4,7]: 0.000000
Variable fw[1,4,7,A]: 0.000000
Variable fw[1,4,7,B]: 0.000000
Variable fw[1,4,7,C]: 0.000000
Variable fw[1,4,7,1]: 0.000000
Variable fw[1,4,7,4]: 0.000000
Variable fw[1,4,7,7]: 0.000000
Variable fw[1,7,A,A]: 0.000000
Variable fw[1,7,A,B]: 0.000000
Variable fw[1,7,A,C]: 0.000000
Variable fw[1,7,A,1]: 0.000000
Variable fw[1,7,A,4]: 0.000000
Variable fw[1,7,A,7]: 0.000000
Variable fw[1,7,B,A]: 0.000000
Variable fw[1,7,B,B]: 0.000000
Variable fw[1,7,B,C]: 1000.000000
Variable fw[1,7,B,1]: 0.000000
Variable fw[1,7,B,4]: 0.000000
Variable fw[1,7,B,7]: 0.000000
Variable fw[1,7,C,A]: 0.000000
Variable fw[1,7,C,B]: 0.000000
Variable fw[1,7,C,C]: 0.000000
Variable fw[1,7,C,1]: 0.000000
Variable fw[1,7,C,4]: 0.000000
Variable fw[1,7,C,7]: 1000.000000
Variable fw[1,7,1,A]: 0.000000
Variable fw[1,7,1,B]: 1000.000000
Variable fw[1,7,1,C]: 0.000000
Variable fw[1,7,1,1]: 0.000000
Variable fw[1,7,1,4]: 0.000000
Variable fw[1,7,1,7]: 0.000000
Variable fw[1,7,4,A]: 0.000000
Variable fw[1,7,4,B]: 0.000000
Variable fw[1,7,4,C]: 0.000000
Variable fw[1,7,4,1]: 0.000000
Variable fw[1,7,4,4]: 0.000000
Variable fw[1,7,4,7]: 0.000000
Variable fw[1,7,7,A]: 0.000000
Variable fw[1,7,7,B]: 0.000000
Variable fw[1,7,7,C]: 0.000000
Variable fw[1,7,7,1]: 0.000000
Variable fw[1,7,7,4]: 0.000000
Variable fw[1,7,7,7]: 0.000000
Variable fb[1,4,A,A]: 0.000000
Variable fb[1,4,A,B]: 0.000000
Variable fb[1,4,A,C]: 0.000000
Variable fb[1,4,A,1]: 0.000000
Variable fb[1,4,A,4]: 0.000000
Variable fb[1,4,A,7]: 0.000000
Variable fb[1,4,B,A]: 0.000000
Variable fb[1,4,B,B]: 0.000000
Variable fb[1,4,B,C]: 0.000000
Variable fb[1,4,B,1]: 0.000000
Variable fb[1,4,B,4]: 0.000000
Variable fb[1,4,B,7]: 0.000000
Variable fb[1,4,C,A]: 0.000000
Variable fb[1,4,C,B]: 0.000000
Variable fb[1,4,C,C]: 0.000000
Variable fb[1,4,C,1]: 0.000000
Variable fb[1,4,C,4]: 0.000000
Variable fb[1,4,C,7]: 0.000000
Variable fb[1,4,1,A]: 0.000000
Variable fb[1,4,1,B]: 0.000000
Variable fb[1,4,1,C]: 0.000000
Variable fb[1,4,1,1]: 0.000000
Variable fb[1,4,1,4]: 0.000000
Variable fb[1,4,1,7]: 0.000000
Variable fb[1,4,4,A]: 0.000000
Variable fb[1,4,4,B]: 0.000000
Variable fb[1,4,4,C]: 0.000000
Variable fb[1,4,4,1]: 0.000000
Variable fb[1,4,4,4]: 0.000000
Variable fb[1,4,4,7]: 0.000000
Variable fb[1,4,7,A]: 0.000000
Variable fb[1,4,7,B]: 0.000000
Variable fb[1,4,7,C]: 0.000000
Variable fb[1,4,7,1]: 0.000000
Variable fb[1,4,7,4]: 0.000000
Variable fb[1,4,7,7]: 0.000000
Variable fb[1,7,A,A]: 0.000000
Variable fb[1,7,A,B]: 0.000000
Variable fb[1,7,A,C]: 0.000000
Variable fb[1,7,A,1]: 0.000000
Variable fb[1,7,A,4]: 0.000000
Variable fb[1,7,A,7]: 0.000000
Variable fb[1,7,B,A]: 0.000000
Variable fb[1,7,B,B]: 0.000000
Variable fb[1,7,B,C]: 0.000000
Variable fb[1,7,B,1]: 0.000000
Variable fb[1,7,B,4]: 0.000000
Variable fb[1,7,B,7]: 0.000000
Variable fb[1,7,C,A]: 0.000000
Variable fb[1,7,C,B]: 0.000000
Variable fb[1,7,C,C]: 0.000000
Variable fb[1,7,C,1]: 0.000000
Variable fb[1,7,C,4]: 0.000000
Variable fb[1,7,C,7]: 0.000000
Variable fb[1,7,1,A]: 0.000000
Variable fb[1,7,1,B]: 0.000000
Variable fb[1,7,1,C]: 0.000000
Variable fb[1,7,1,1]: 0.000000
Variable fb[1,7,1,4]: 0.000000
Variable fb[1,7,1,7]: 0.000000
Variable fb[1,7,4,A]: 0.000000
Variable fb[1,7,4,B]: 0.000000
Variable fb[1,7,4,C]: 0.000000
Variable fb[1,7,4,1]: 0.000000
Variable fb[1,7,4,4]: 0.000000
Variable fb[1,7,4,7]: 0.000000
Variable fb[1,7,7,A]: 0.000000
Variable fb[1,7,7,B]: 0.000000
Variable fb[1,7,7,C]: 0.000000
Variable fb[1,7,7,1]: 0.000000
Variable fb[1,7,7,4]: 0.000000
Variable fb[1,7,7,7]: 0.000000
Variable phiw[1,4,A,A]: 0
Variable phiw[1,4,A,B]: 1
Variable phiw[1,4,A,C]: 0
Variable phiw[1,4,A,1]: 0
Variable phiw[1,4,A,4]: 1
Variable phiw[1,4,A,7]: 0
Variable phiw[1,4,B,A]: 1
Variable phiw[1,4,B,B]: 0
Variable phiw[1,4,B,C]: 0
Variable phiw[1,4,B,1]: 1
Variable phiw[1,4,B,4]: 0
Variable phiw[1,4,B,7]: 0
Variable phiw[1,4,C,A]: 0
Variable phiw[1,4,C,B]: 0
Variable phiw[1,4,C,C]: 0
Variable phiw[1,4,C,1]: 0
Variable phiw[1,4,C,4]: 0
Variable phiw[1,4,C,7]: 0
Variable phiw[1,4,1,A]: 0
Variable phiw[1,4,1,B]: 1
Variable phiw[1,4,1,C]: 0
Variable phiw[1,4,1,1]: 0
Variable phiw[1,4,1,4]: 0
Variable phiw[1,4,1,7]: 0
Variable phiw[1,4,4,A]: 1
Variable phiw[1,4,4,B]: 0
Variable phiw[1,4,4,C]: 0
Variable phiw[1,4,4,1]: 0
Variable phiw[1,4,4,4]: 0
Variable phiw[1,4,4,7]: 0
Variable phiw[1,4,7,A]: 0
Variable phiw[1,4,7,B]: 0
Variable phiw[1,4,7,C]: 0
Variable phiw[1,4,7,1]: 0
Variable phiw[1,4,7,4]: 0
Variable phiw[1,4,7,7]: 0
Variable phiw[1,7,A,A]: 0
Variable phiw[1,7,A,B]: 0
Variable phiw[1,7,A,C]: 0
Variable phiw[1,7,A,1]: 0
Variable phiw[1,7,A,4]: 0
Variable phiw[1,7,A,7]: 0
Variable phiw[1,7,B,A]: 0
Variable phiw[1,7,B,B]: 0
Variable phiw[1,7,B,C]: 1
Variable phiw[1,7,B,1]: 1
Variable phiw[1,7,B,4]: 0
Variable phiw[1,7,B,7]: 0
Variable phiw[1,7,C,A]: 0
Variable phiw[1,7,C,B]: 1
Variable phiw[1,7,C,C]: 0
Variable phiw[1,7,C,1]: 0
Variable phiw[1,7,C,4]: 0
Variable phiw[1,7,C,7]: 1
Variable phiw[1,7,1,A]: 0
Variable phiw[1,7,1,B]: 1
Variable phiw[1,7,1,C]: 0
Variable phiw[1,7,1,1]: 0
Variable phiw[1,7,1,4]: 0
Variable phiw[1,7,1,7]: 0
Variable phiw[1,7,4,A]: 0
Variable phiw[1,7,4,B]: 0
Variable phiw[1,7,4,C]: 0
Variable phiw[1,7,4,1]: 0
Variable phiw[1,7,4,4]: 0
Variable phiw[1,7,4,7]: 0
Variable phiw[1,7,7,A]: 0
Variable phiw[1,7,7,B]: 0
Variable phiw[1,7,7,C]: 1
Variable phiw[1,7,7,1]: 0
Variable phiw[1,7,7,4]: 0
Variable phiw[1,7,7,7]: 0
Variable phib[1,4,A,A]: 0
Variable phib[1,4,A,B]: 0
Variable phib[1,4,A,C]: 0
Variable phib[1,4,A,1]: 0
Variable phib[1,4,A,4]: 0
Variable phib[1,4,A,7]: 0
Variable phib[1,4,B,A]: 0
Variable phib[1,4,B,B]: 0
Variable phib[1,4,B,C]: 0
Variable phib[1,4,B,1]: 0
Variable phib[1,4,B,4]: 0
Variable phib[1,4,B,7]: 0
Variable phib[1,4,C,A]: 0
Variable phib[1,4,C,B]: 0
Variable phib[1,4,C,C]: 0
Variable phib[1,4,C,1]: 0
Variable phib[1,4,C,4]: 0
Variable phib[1,4,C,7]: 0
Variable phib[1,4,1,A]: 0
Variable phib[1,4,1,B]: 0
Variable phib[1,4,1,C]: 0
Variable phib[1,4,1,1]: 0
Variable phib[1,4,1,4]: 0
Variable phib[1,4,1,7]: 0
Variable phib[1,4,4,A]: 0
Variable phib[1,4,4,B]: 0
Variable phib[1,4,4,C]: 0
Variable phib[1,4,4,1]: 0
Variable phib[1,4,4,4]: 0
Variable phib[1,4,4,7]: 0
Variable phib[1,4,7,A]: 0
Variable phib[1,4,7,B]: 0
Variable phib[1,4,7,C]: 0
Variable phib[1,4,7,1]: 0
Variable phib[1,4,7,4]: 0
Variable phib[1,4,7,7]: 0
Variable phib[1,7,A,A]: 0
Variable phib[1,7,A,B]: 0
Variable phib[1,7,A,C]: 0
Variable phib[1,7,A,1]: 0
Variable phib[1,7,A,4]: 0
Variable phib[1,7,A,7]: 0
Variable phib[1,7,B,A]: 0
Variable phib[1,7,B,B]: 0
Variable phib[1,7,B,C]: 0
Variable phib[1,7,B,1]: 0
Variable phib[1,7,B,4]: 0
Variable phib[1,7,B,7]: 0
Variable phib[1,7,C,A]: 0
Variable phib[1,7,C,B]: 0
Variable phib[1,7,C,C]: 0
Variable phib[1,7,C,1]: 0
Variable phib[1,7,C,4]: 0
Variable phib[1,7,C,7]: 0
Variable phib[1,7,1,A]: 0
Variable phib[1,7,1,B]: 0
Variable phib[1,7,1,C]: 0
Variable phib[1,7,1,1]: 0
Variable phib[1,7,1,4]: 0
Variable phib[1,7,1,7]: 0
Variable phib[1,7,4,A]: 0
Variable phib[1,7,4,B]: 0
Variable phib[1,7,4,C]: 0
Variable phib[1,7,4,1]: 0
Variable phib[1,7,4,4]: 0
Variable phib[1,7,4,7]: 0
Variable phib[1,7,7,A]: 0
Variable phib[1,7,7,B]: 0
Variable phib[1,7,7,C]: 0
Variable phib[1,7,7,1]: 0
Variable phib[1,7,7,4]: 0
Variable phib[1,7,7,7]: 0
Variable thetaw[1,A]: 0
Variable thetaw[1,B]: 1
Variable thetaw[1,C]: 0
Variable thetaw[4,A]: 1
Variable thetaw[4,B]: 0
Variable thetaw[4,C]: 0
Variable thetaw[7,A]: 0
Variable thetaw[7,B]: 0
Variable thetaw[7,C]: 1
Variable thetab[1,A]: 0
Variable thetab[1,B]: 0
Variable thetab[1,C]: 0
Variable thetab[4,A]: 0
Variable thetab[4,B]: 0
Variable thetab[4,C]: 0
Variable thetab[7,A]: 0
Variable thetab[7,B]: 0
Variable thetab[7,C]: 0
Variable cw[1,1]: 0
Variable cw[4,1]: 1
Variable cw[7,1]: 0
Variable cw[1,2]: 1
Variable cw[4,2]: 0
Variable cw[7,2]: 1
Variable cb[1,1]: 0
Variable cb[4,1]: 0
Variable cb[7,1]: 0
Variable cb[1,2]: 0
Variable cb[4,2]: 0
Variable cb[7,2]: 0
Variable r[A,A]: 0.000000
Variable r[A,B]: 0.000000
Variable r[A,C]: 0.000000
Variable r[B,A]: 0.000000
Variable r[B,B]: 0.000000
Variable r[B,C]: 0.000000
Variable r[C,A]: 0.000000
Variable r[C,B]: 0.000000
Variable r[C,C]: 0.000000
Variable cw[1,1] + cb[1,1]: 0
Variable cw[1,2] + cb[1,2]: 1
Variable cw[4,1] + cb[4,1]: 1
Variable cw[4,2] + cb[4,2]: 0
Variable cw[7,1] + cb[7,1]: 0
Variable cw[7,2] + cb[7,2]: 1
Variable gama[A]: 0.000000
Variable gama[B]: 0.000000
Variable gama[C]: 0.000000
Model has been successfully processed
